p edge 34 136
v 1 49
v 2 80
v 3 31
v 4 63
v 5 8
v 6 49
v 7 26
v 8 45
v 9 95
v 10 37
v 11 73
v 12 80
v 13 26
v 14 5
v 15 55
v 16 45
v 17 5
v 18 58
v 19 15
v 20 19
v 21 31
v 22 95
v 23 58
v 24 66
v 25 63
v 26 37
v 27 55
v 28 15
v 29 66
v 30 16
v 31 8
v 32 73
v 33 19
v 34 16
e 1 2
e 1 3
e 1 4
e 1 5
e 1 13
e 1 16
e 1 22
e 1 26
e 1 32
e 2 3
e 2 4
e 2 5
e 2 7
e 2 17
e 2 27
e 3 4
e 3 5
e 3 9
e 3 18
e 3 29
e 4 5
e 4 10
e 4 15
e 4 19
e 4 24
e 4 34
e 5 11
e 5 20
e 5 30
e 6 7
e 6 8
e 6 9
e 6 10
e 6 11
e 6 12
e 6 21
e 6 25
e 6 31
e 7 8
e 7 9
e 7 10
e 7 11
e 7 17
e 7 27
e 8 9
e 8 10
e 8 11
e 8 14
e 8 23
e 8 28
e 8 33
e 9 10
e 9 11
e 9 18
e 9 29
e 10 11
e 10 15
e 10 19
e 10 24
e 10 34
e 11 20
e 11 30
e 12 13
e 12 14
e 12 15
e 12 21
e 12 25
e 12 31
e 13 14
e 13 15
e 13 16
e 13 22
e 13 26
e 13 32
e 14 15
e 14 23
e 14 28
e 14 33
e 15 19
e 15 24
e 15 34
e 16 17
e 16 18
e 16 19
e 16 20
e 16 22
e 16 26
e 16 32
e 17 18
e 17 19
e 17 20
e 17 27
e 18 19
e 18 20
e 18 29
e 19 20
e 19 24
e 19 34
e 20 30
e 21 22
e 21 23
e 21 24
e 21 25
e 21 31
e 22 23
e 22 24
e 22 26
e 22 32
e 23 24
e 23 28
e 23 33
e 24 34
e 25 26
e 25 27
e 25 28
e 25 29
e 25 30
e 25 31
e 26 27
e 26 28
e 26 29
e 26 30
e 26 32
e 27 28
e 27 29
e 27 30
e 28 29
e 28 30
e 28 33
e 29 30
e 31 32
e 31 33
e 31 34
e 32 33
e 32 34
e 33 34
